104533
0,9,28,63,72,44,45,53,79,61,13,69,25,35,75,66,19,65,70,20,47,23,30,18,4,21,43,67,58,27,34,29,1,37,15,10,74,81,39,31,73,57,8,76,16,55,6,32,26,50,71,80,59,46,48,33,56,42,2,11,22,54,41,24,14,68,77,60,5,78,82,7,52,62,38,40,51,3,49,64,17,36,12,0